============================[ Problem Statistics ]=============================|                                                                             ||  Number of variables:          4242                                         ||  Number of clauses:            9854                                         ||  Parse time:                   0.26 s                                       ||                                                                             |============================[ Search Statistics ]==============================| Conflicts |          ORIGINAL         |          LEARNT          | Progress ||           |    Vars  Clauses Literals |    Limit  Clauses Lit/Cl |          |===============================================================================|       100 |    1591     6059   387270 |     2221      100     53 | 62.501 % |===============================================================================restarts              : 2conflicts             : 150            (366 /sec)decisions             : 321            (0.00 % random) (783 /sec)propagations          : 9956           (24283 /sec)conflict literals     : 9699           (95.41 % deleted)CPU time              : 0.41 sSATISFIABLE